data;

param:
I: Value :=
0    41
1    23
2    73
3    4
4    86
5    70
6    94
7    20
8    84
9    27
10    37
11    53
12    73
13    59
14    82
15    99
16    91
17    80
18    75
19    64
20    6
21    4
22    75
23    53
24    81
25    92
26    73
27    94
28    0
29    53
30    85
31    41
32    77
33    10
34    45
35    63
36    33
37    91
38    35
39    17
40    19
41    24
42    70
43    44
44    36
45    4
46    43
47    27
48    84;

param TargetSum := 1618;
